256803
[0, 1, 5, 3, 4, 2, 6, 7, 8, 9, 10, 11, 12, 15, 14, 16, 13, 17, 18, 19, 20, 21, 24, 23, 22, 25, 26, 27, 28, 29, 30, 31, 32, 33, 34, 36, 35, 37, 40, 39, 38, 41, 42, 43, 44, 45, 47, 46, 48, 49, 50, 52, 51, 53, 54, 55, 56, 57, 58, 59, 60, 61, 62, 64, 63, 65, 68, 67, 66, 69, 70, 71, 72, 73, 74, 76, 75, 77, 78, 79, 80, 82, 81, 83, 84, 85, 86, 87, 88, 89, 90, 92, 91, 93, 96, 95, 94, 97, 98, 100, 99, 101, 104, 102, 103, 105, 106, 107, 108, 109, 110, 111, 112, 113, 114, 124, 120, 121, 122, 123, 119, 118, 117, 116, 125, 115, 126, 127, 128, 129, 130, 131, 132, 133, 134, 136, 135, 137, 138, 139, 140, 141, 142, 143, 144, 145, 146, 147, 148, 149, 150, 151, 152, 153, 154, 156, 155, 157, 158, 159, 160, 161, 162, 163, 164, 165, 166, 167, 168, 169, 170, 171, 172, 173, 174, 175, 176, 177, 178, 179, 180, 181, 182, 183, 184, 185, 186, 187, 188, 189, 190, 191, 192, 194, 193, 195, 196, 197, 198, 199, 200, 201, 202, 207, 206, 205, 204, 203, 208, 209, 210, 211, 212, 2267, 2268, 213, 214, 215, 216, 217, 218, 219, 223, 221, 222, 220, 224, 225, 226, 227, 228, 229, 230, 233, 232, 231, 234, 235, 236, 237, 238, 239, 240, 241, 242, 243, 244, 245, 246, 247, 248, 249, 250, 2245, 2244, 2246, 251, 252, 254, 253, 255, 256, 257, 258, 259, 260, 261, 262, 263, 264, 265, 266, 268, 267, 269, 270, 279, 278, 277, 272, 275, 274, 273, 276, 271, 280, 281, 283, 282, 284, 285, 287, 286, 288, 289, 290, 291, 292, 296, 295, 294, 293, 297, 299, 298, 300, 301, 302, 305, 304, 303, 306, 307, 308, 309, 310, 311, 320, 319, 318, 313, 316, 315, 314, 317, 312, 321, 322, 323, 325, 324, 326, 327, 328, 329, 330, 338, 337, 336, 333, 334, 335, 332, 331, 339, 341, 340, 342, 343, 344, 345, 346, 347, 348, 349, 350, 355, 354, 353, 356, 351, 352, 357, 358, 359, 360, 366, 365, 362, 363, 364, 361, 369, 367, 368, 370, 372, 371, 373, 374, 375, 376, 377, 378, 379, 380, 381, 382, 383, 384, 386, 385, 387, 388, 389, 390, 391, 392, 393, 394, 395, 396, 397, 398, 399, 400, 401, 402, 403, 404, 405, 406, 407, 408, 409, 410, 411, 412, 413, 414, 415, 416, 417, 418, 419, 420, 421, 422, 423, 424, 425, 426, 427, 428, 429, 430, 431, 432, 433, 434, 436, 435, 437, 438, 439, 440, 441, 442, 443, 444, 445, 446, 447, 448, 449, 450, 451, 452, 453, 454, 455, 456, 458, 457, 459, 460, 461, 462, 463, 464, 465, 466, 467, 468, 469, 470, 471, 472, 473, 474, 476, 475, 477, 478, 479, 480, 481, 482, 483, 484, 485, 486, 487, 488, 489, 490, 491, 492, 493, 494, 496, 495, 497, 500, 499, 498, 501, 502, 503, 507, 504, 505, 506, 508, 509, 510, 511, 513, 512, 514, 515, 518, 517, 516, 519, 520, 521, 522, 523, 524, 527, 526, 525, 528, 532, 531, 530, 529, 533, 534, 536, 535, 537, 540, 539, 538, 541, 542, 543, 544, 545, 546, 547, 550, 549, 548, 551, 552, 553, 556, 555, 554, 557, 558, 559, 560, 561, 562, 563, 564, 567, 566, 565, 568, 571, 570, 569, 572, 573, 575, 574, 576, 577, 578, 579, 580, 581, 582, 583, 584, 587, 586, 585, 588, 589, 590, 591, 592, 593, 594, 595, 596, 597, 598, 600, 599, 601, 602, 603, 604, 605, 606, 607, 608, 609, 611, 610, 612, 613, 614, 615, 616, 617, 618, 619, 620, 621, 622, 623, 624, 625, 626, 628, 627, 629, 630, 631, 632, 633, 634, 635, 636, 637, 638, 642, 641, 643, 639, 640, 644, 645, 654, 653, 650, 649, 651, 652, 648, 647, 646, 655, 656, 657, 658, 659, 660, 661, 662, 663, 664, 666, 665, 667, 673, 672, 671, 669, 670, 668, 679, 676, 677, 678, 675, 674, 680, 681, 682, 683, 685, 684, 686, 687, 688, 690, 689, 693, 694, 695, 691, 696, 692, 697, 698, 699, 700, 701, 702, 703, 704, 709, 710, 711, 712, 713, 714, 705, 706, 707, 708, 715, 716, 718, 717, 719, 721, 720, 722, 723, 724, 725, 726, 727, 728, 729, 730, 731, 732, 733, 737, 735, 736, 734, 738, 739, 740, 741, 742, 743, 745, 744, 746, 747, 748, 750, 749, 751, 752, 756, 754, 755, 753, 757, 759, 758, 760, 762, 761, 763, 764, 765, 766, 767, 768, 769, 771, 770, 772, 773, 778, 776, 777, 775, 774, 779, 780, 781, 783, 782, 784, 785, 786, 787, 788, 789, 790, 793, 792, 791, 794, 795, 796, 797, 800, 799, 798, 801, 802, 803, 804, 808, 806, 807, 805, 809, 810, 811, 812, 813, 814, 815, 816, 817, 818, 819, 820, 822, 821, 823, 824, 825, 826, 827, 842, 841, 840, 839, 838, 837, 836, 843, 828, 829, 830, 831, 832, 833, 834, 835, 844, 845, 1035, 846, 847, 848, 849, 850, 851, 852, 853, 854, 855, 856, 857, 858, 859, 860, 861, 862, 863, 864, 865, 867, 866, 868, 869, 870, 871, 872, 873, 874, 875, 877, 876, 878, 883, 880, 881, 1032, 1033, 1034, 1036, 1020, 1021, 1022, 1023, 1024, 1025, 1026, 1027, 1028, 918, 917, 919, 1029, 1030, 1031, 882, 879, 884, 885, 886, 887, 889, 888, 890, 891, 892, 893, 894, 895, 1225, 1224, 1223, 1227, 1226, 896, 897, 898, 899, 900, 901, 902, 903, 904, 911, 910, 907, 908, 909, 906, 905, 912, 913, 914, 915, 916, 920, 921, 922, 923, 924, 925, 926, 927, 928, 929, 930, 931, 932, 933, 934, 935, 936, 937, 938, 939, 940, 941, 942, 943, 944, 945, 946, 947, 948, 950, 949, 951, 952, 953, 957, 956, 955, 954, 958, 959, 960, 961, 975, 963, 964, 965, 971, 967, 969, 968, 970, 966, 972, 973, 974, 962, 976, 977, 978, 979, 980, 981, 982, 984, 983, 985, 987, 986, 988, 990, 989, 991, 992, 993, 994, 995, 996, 997, 1000, 999, 998, 1001, 1002, 1003, 1004, 1005, 1006, 1007, 1008, 1009, 1010, 1011, 1012, 1013, 1014, 1015, 1016, 1017, 1018, 1019, 1037, 1038, 1039, 1040, 1041, 1042, 1043, 1044, 1045, 1046, 1047, 1049, 1048, 1050, 1051, 1052, 1053, 1054, 1055, 1056, 1057, 1058, 1060, 1059, 1061, 1062, 1063, 1064, 1065, 1066, 1067, 1068, 1069, 1070, 1071, 1072, 1080, 1079, 1078, 1075, 1076, 1074, 1077, 1073, 1081, 1083, 1082, 1084, 1085, 1086, 1087, 1088, 1089, 1090, 1091, 1092, 1093, 1094, 1095, 1096, 1097, 1098, 1099, 1100, 1101, 1102, 1104, 1103, 1105, 1107, 1106, 1108, 1110, 1109, 1111, 1112, 1113, 1114, 1115, 1116, 1117, 1118, 1119, 1120, 1121, 1122, 1123, 1124, 1125, 1126, 1127, 1128, 1129, 1130, 1131, 1132, 1133, 1134, 1135, 1136, 1137, 1138, 1139, 1140, 1141, 1142, 1143, 1144, 1145, 1146, 1147, 1148, 1149, 1150, 1151, 1152, 1153, 1154, 1155, 1156, 1157, 1159, 1158, 1160, 1161, 1164, 1163, 1162, 1165, 1166, 1167, 1168, 1169, 1170, 1171, 1172, 1174, 1173, 1175, 1176, 1177, 1179, 1178, 1180, 1182, 1181, 1183, 1184, 1185, 1186, 1187, 1188, 1189, 1191, 1190, 1192, 1193, 1194, 1196, 1195, 1197, 1198, 1207, 1201, 1202, 1203, 1204, 1205, 1206, 1200, 1199, 1208, 1210, 1209, 1211, 1212, 1213, 1217, 1216, 1215, 1214, 1218, 1219, 1220, 1221, 1222, 1228, 1229, 1230, 1231, 1232, 1233, 1234, 1236, 1235, 1237, 1241, 1240, 1239, 1238, 1242, 1244, 1243, 1245, 1246, 1247, 1250, 1249, 1248, 1251, 1252, 1254, 1253, 1255, 1256, 1257, 1264, 1263, 1262, 1261, 1260, 1259, 1271, 1270, 1269, 1258, 1265, 1266, 1267, 1268, 1278, 1272, 1273, 1274, 1275, 1276, 1277, 1279, 1280, 1281, 1282, 1283, 1284, 1285, 1286, 1287, 1288, 1289, 1290, 1291, 1292, 1293, 1294, 1295, 1296, 1297, 1298, 1299, 1300, 1301, 1302, 1303, 1304, 1305, 1306, 1307, 1308, 1309, 1310, 1312, 1311, 1313, 1315, 1314, 1316, 1317, 1318, 1319, 1320, 1321, 1322, 1323, 1324, 1325, 1326, 1327, 1329, 1328, 1330, 1331, 1332, 1333, 1334, 1335, 1336, 1338, 1337, 1339, 1340, 1341, 1342, 1343, 1344, 1345, 1347, 1346, 1348, 1349, 1350, 1351, 1352, 1353, 1354, 1355, 1356, 1357, 1358, 1359, 1360, 1361, 1362, 1363, 1364, 1365, 1366, 1367, 1368, 1369, 1370, 1371, 1372, 1373, 1374, 1375, 1376, 1377, 1378, 1379, 1380, 1381, 1382, 1383, 1384, 1385, 1389, 1390, 1392, 1391, 1393, 1394, 1395, 1396, 1397, 1398, 1399, 1386, 1387, 1388, 1400, 1401, 1405, 1404, 1403, 1410, 1409, 1408, 1411, 1402, 1406, 1407, 1412, 1413, 1414, 1419, 1418, 1417, 1420, 1415, 1416, 1421, 1422, 1423, 1424, 1425, 1426, 1427, 1428, 1429, 1430, 1431, 1432, 1434, 1433, 1435, 1436, 1437, 1438, 1439, 1440, 1441, 1442, 1443, 1444, 1449, 1448, 1447, 1450, 1445, 1446, 1451, 1452, 1453, 1454, 1455, 1456, 1457, 1458, 1459, 1460, 1461, 1462, 1464, 1463, 1465, 1466, 1467, 1468, 1469, 1470, 1471, 1472, 1473, 1474, 1479, 1478, 1477, 1480, 1475, 1476, 1481, 1482, 1483, 1484, 1485, 1486, 1493, 1492, 1491, 1490, 1489, 1488, 1487, 1500, 1498, 1496, 1495, 1494, 1497, 1499, 1501, 1502, 1503, 1504, 1505, 1506, 1507, 1509, 1508, 1510, 1511, 1512, 1513, 1514, 1515, 1516, 1517, 1518, 1520, 1519, 1521, 1522, 1523, 1524, 1525, 1526, 1527, 1528, 1530, 1529, 1531, 1532, 1533, 1534, 1535, 1536, 1537, 1540, 1539, 1538, 1541, 1542, 1543, 1544, 1545, 1546, 1547, 1548, 1549, 1550, 1551, 1552, 1555, 1554, 1553, 1556, 1557, 1558, 1559, 1560, 1561, 1562, 1563, 1564, 1567, 1566, 1565, 1568, 1569, 1570, 1571, 1572, 1573, 1574, 1575, 1576, 1579, 1578, 1577, 1580, 1581, 1582, 1583, 1584, 1585, 1586, 1587, 1588, 1589, 1590, 1591, 1592, 1593, 1594, 1595, 1596, 1597, 1598, 1599, 1602, 1601, 1600, 1603, 1604, 1606, 1605, 1607, 1608, 1609, 1610, 1611, 1612, 1614, 1613, 1615, 1616, 1618, 1617, 1619, 1620, 1621, 1622, 1623, 1624, 1625, 1626, 1627, 1628, 1629, 1630, 1631, 1632, 1634, 1633, 1635, 1636, 1638, 1637, 1639, 1640, 1641, 1648, 1643, 1646, 1645, 1644, 1647, 1642, 1649, 1650, 1651, 1653, 1652, 1654, 1655, 1656, 1657, 1658, 1659, 1660, 1661, 1662, 1663, 1664, 1666, 1665, 1667, 1668, 1670, 1669, 1671, 1672, 1673, 1674, 1675, 1676, 1677, 1678, 1679, 1680, 1681, 1682, 1683, 1696, 1695, 1685, 1693, 1691, 1687, 1689, 1690, 1688, 1692, 1686, 1694, 1684, 1697, 1698, 1699, 1838, 1839, 1840, 1861, 1862, 1863, 1864, 1865, 1866, 1867, 1868, 1869, 1870, 1871, 1872, 1873, 1860, 1855, 1854, 1852, 1853, 1851, 1850, 1849, 1848, 1847, 1846, 1845, 1841, 1842, 1843, 1844, 1830, 1832, 1831, 1825, 1824, 1826, 1827, 1828, 1829, 1833, 1834, 1836, 1835, 1837, 1700, 1701, 1702, 1703, 1704, 1705, 1706, 1707, 1708, 1709, 1710, 1711, 1712, 1713, 1714, 1715, 1716, 1717, 1718, 1719, 1720, 1721, 1722, 1723, 1724, 1727, 1726, 1725, 1728, 1729, 1730, 1731, 1732, 1733, 1734, 1735, 1736, 1737, 1738, 1739, 1740, 1743, 1742, 1741, 1744, 1745, 1746, 1747, 1748, 1749, 1750, 1751, 1752, 1753, 1754, 1755, 1756, 1757, 1758, 1759, 1760, 1762, 1761, 1763, 1764, 1774, 1773, 1772, 1771, 1770, 1769, 1768, 1767, 1766, 1765, 1775, 1776, 1777, 1778, 1779, 1782, 1781, 1780, 1783, 1784, 1785, 1786, 1791, 1790, 1789, 1792, 1787, 1788, 1793, 1794, 1795, 1801, 1800, 1799, 1798, 1797, 1796, 1802, 1804, 1803, 1805, 1808, 1807, 1806, 1809, 1810, 1811, 1816, 1815, 1814, 1813, 1812, 1817, 1818, 1819, 1820, 1821, 1822, 1823, 1856, 1858, 1857, 1859, 1874, 1875, 1877, 1876, 1890, 1891, 1892, 1893, 1894, 1879, 1878, 1880, 1882, 1881, 1883, 1884, 1885, 1887, 1886, 1888, 1889, 1895, 1896, 1897, 1898, 1899, 1900, 1901, 1902, 1903, 1905, 1904, 1906, 1907, 1908, 1909, 1924, 1925, 1926, 1927, 1928, 1929, 1930, 1915, 1912, 1913, 1911, 1910, 2043, 2045, 2046, 2047, 2048, 2041, 2042, 2044, 1914, 1916, 1917, 1919, 1918, 1920, 1921, 1922, 1923, 1931, 1932, 1933, 1934, 1935, 1954, 1951, 1952, 1950, 1953, 1949, 1955, 1936, 1937, 1938, 1939, 1940, 1941, 1942, 1943, 1944, 1945, 1946, 1947, 1948, 1956, 1957, 1958, 1959, 1960, 1961, 1962, 1963, 1964, 1965, 1966, 1967, 1968, 1969, 1970, 1971, 1972, 1973, 1974, 1975, 1976, 1977, 1978, 1979, 1980, 1985, 1984, 1983, 1982, 1981, 1986, 1987, 1999, 1997, 1998, 1996, 1995, 1994, 1988, 1989, 1990, 1991, 1993, 1992, 2000, 2001, 2002, 2003, 2004, 2005, 2006, 2007, 2008, 2009, 2010, 2011, 2012, 2013, 2014, 2015, 2016, 2017, 2018, 2019, 2020, 2021, 2022, 2023, 2024, 2025, 2026, 2027, 2028, 2029, 2030, 2031, 2032, 2033, 2034, 2035, 2036, 2037, 2038, 2039, 2040, 2049, 2050, 2054, 2052, 2053, 2051, 2055, 2056, 2058, 2057, 2059, 2060, 2061, 2062, 2065, 2064, 2063, 2066, 2067, 2068, 2069, 2070, 2071, 2073, 2072, 2074, 2075, 2076, 2078, 2077, 2079, 2080, 2083, 2082, 2081, 2084, 2085, 2086, 2087, 2088, 2089, 2090, 2091, 2092, 2094, 2093, 2095, 2096, 2100, 2101, 2102, 2097, 2099, 2098, 2103, 2104, 2105, 2106, 2107, 2108, 2109, 2110, 2111, 2112, 2113, 2114, 2115, 2116, 2117, 2118, 2119, 2120, 2121, 2122, 2123, 2125, 2124, 2126, 2127, 2128, 2129, 2130, 2131, 2132, 2133, 2134, 2135, 2136, 2137, 2139, 2138, 2140, 2141, 2142, 2143, 2145, 2144, 2146, 2147, 2148, 2149, 2150, 2151, 2152, 2153, 2154, 2155, 2156, 2157, 2159, 2158, 2160, 2161, 2162, 2163, 2165, 2164, 2166, 2167, 2168, 2169, 2170, 2171, 2172, 2173, 2174, 2175, 2176, 2178, 2177, 2179, 2180, 2181, 2182, 2183, 2184, 2185, 2186, 2187, 2188, 2189, 2190, 2191, 2192, 2193, 2194, 2195, 2196, 2197, 2198, 2199, 2200, 2201, 2202, 2203, 2204, 2205, 2206, 2207, 2209, 2208, 2210, 2211, 2212, 2213, 2214, 2215, 2216, 2217, 2218, 2220, 2219, 2221, 2222, 2223, 2224, 2225, 2226, 2227, 2228, 2229, 2230, 2231, 2232, 2234, 2233, 2235, 2236, 2237, 2238, 2239, 2240, 2241, 2242, 2243, 2247, 2248, 2249, 2250, 2251, 2252, 2253, 2254, 2255, 2256, 2257, 2258, 2259, 2260, 2261, 2262, 2263, 2264, 2265, 2266, 2269, 2270, 2271, 2272, 2273, 2274, 2275, 2276, 2277, 2278, 2279, 2280, 2281, 2282, 2283, 2284, 2285, 2286, 2287, 2288, 2289, 2290, 2291, 2292, 2293, 2294, 2295, 2296, 2297, 2298, 2299, 2300, 2301, 2302, 2303, 2311, 2304, 2305, 2306, 2307, 2308, 2309, 2310, 2312, 2313, 2314, 2315, 2316, 2317, 2318]
